DIMACS_lns/graph-1000-258.col
p edge 1000 1837
e 1 402
e 1 601
e 1 860
e 1 984
e 1 308
e 1 824
e 2 752
e 2 842
e 2 864
e 2 538
e 2 666
e 2 182
e 2 969
e 2 966
e 3 972
e 3 618
e 3 917
e 4 535
e 4 827
e 4 604
e 4 680
e 5 596
e 5 134
e 5 530
e 6 389
e 6 666
e 6 551
e 7 10
e 7 275
e 7 70
e 7 237
e 8 478
e 8 857
e 8 284
e 8 906
e 8 355
e 8 166
e 9 653
e 9 438
e 9 312
e 9 369
e 9 250
e 10 33
e 10 642
e 11 130
e 11 335
e 11 628
e 11 117
e 11 390
e 12 310
e 12 419
e 12 674
e 12 506
e 12 886
e 13 297
e 13 461
e 13 847
e 13 220
e 13 175
e 14 948
e 14 80
e 14 442
e 16 995
e 16 957
e 16 771
e 16 571
e 16 795
e 16 787
e 17 55
e 17 817
e 17 810
e 18 526
e 18 505
e 18 735
e 18 289
e 18 964
e 19 283
e 19 462
e 19 289
e 19 373
e 19 870
e 19 94
e 21 682
e 21 840
e 21 380
e 21 248
e 21 373
e 21 312
e 21 195
e 21 876
e 24 952
e 24 903
e 24 230
e 24 980
e 24 729
e 25 907
e 25 63
e 25 975
e 25 687
e 25 360
e 25 835
e 26 383
e 26 569
e 26 239
e 26 107
e 27 48
e 27 478
e 27 326
e 27 870
e 28 224
e 28 838
e 28 603
e 29 114
e 29 510
e 29 664
e 30 454
e 30 726
e 30 268
e 31 472
e 31 111
e 31 430
e 31 371
e 32 781
e 32 728
e 32 466
e 32 333
e 33 62
e 33 647
e 34 911
e 34 93
e 34 480
e 36 175
e 36 319
e 36 225
e 36 919
e 36 333
e 36 111
e 37 304
e 37 836
e 37 307
e 37 408
e 37 922
e 37 244
e 37 119
e 39 858
e 39 559
e 39 492
e 41 358
e 41 565
e 41 937
e 41 405
e 42 706
e 42 822
e 42 983
e 42 740
e 45 635
e 45 509
e 45 905
e 48 99
e 48 278
e 48 104
e 48 701
e 48 520
e 48 542
e 49 186
e 49 668
e 49 308
e 49 885
e 49 325
e 49 132
e 49 706
e 49 354
e 51 899
e 51 736
e 51 933
e 51 901
e 53 147
e 53 450
e 53 434
e 53 852
e 53 215
e 54 126
e 54 800
e 54 909
e 54 676
e 54 792
e 55 729
e 55 846
e 55 458
e 55 180
e 57 645
e 57 797
e 57 668
e 58 873
e 58 209
e 58 810
e 58 938
e 58 998
e 59 199
e 59 509
e 59 434
e 62 526
e 62 449
e 62 405
e 63 611
e 63 67
e 64 156
e 64 500
e 64 594
e 65 882
e 65 933
e 65 574
e 65 630
e 65 249
e 65 780
e 66 249
e 66 253
e 66 678
e 66 116
e 67 265
e 67 935
e 67 449
e 69 506
e 69 134
e 69 671
e 69 348
e 69 171
e 69 530
e 70 370
e 70 847
e 71 118
e 71 831
e 71 104
e 73 935
e 73 132
e 73 389
e 73 888
e 76 216
e 76 885
e 76 541
e 76 559
e 78 115
e 78 692
e 78 99
e 78 575
e 78 928
e 79 847
e 79 749
e 79 549
e 79 647
e 79 787
e 80 204
e 80 113
e 80 178
e 80 978
e 80 877
e 80 903
e 83 298
e 83 627
e 83 529
e 83 488
e 84 847
e 84 410
e 84 939
e 85 339
e 85 501
e 85 810
e 85 322
e 85 285
e 85 414
e 85 441
e 85 157
e 86 520
e 86 915
e 86 499
e 87 775
e 87 175
e 87 877
e 87 763
e 88 780
e 88 982
e 88 589
e 89 633
e 89 978
e 89 945
e 89 875
e 89 301
e 90 620
e 90 642
e 90 977
e 91 831
e 91 568
e 91 552
e 91 114
e 91 603
e 91 846
e 93 898
e 93 105
e 93 664
e 93 288
e 93 726
e 93 118
e 94 601
e 94 982
e 95 354
e 95 387
e 95 381
e 95 336
e 95 965
e 96 187
e 96 618
e 96 195
e 96 362
e 96 568
e 98 720
e 98 453
e 98 177
e 98 182
e 99 110
e 99 342
e 99 144
e 99 500
e 99 514
e 100 972
e 100 150
e 100 358
e 101 588
e 101 286
e 101 492
e 101 272
e 101 632
e 101 747
e 103 561
e 103 785
e 103 856
e 103 255
e 103 784
e 104 857
e 104 342
e 104 800
e 104 227
e 104 675
e 105 870
e 105 447
e 105 176
e 107 575
e 107 673
e 107 840
e 107 333
e 107 401
e 108 995
e 108 238
e 108 817
e 108 734
e 108 445
e 108 792
e 110 169
e 110 996
e 110 940
e 110 391
e 110 235
e 110 485
e 111 922
e 111 692
e 111 516
e 112 583
e 112 410
e 112 653
e 112 618
e 112 390
e 113 224
e 113 941
e 114 967
e 114 866
e 114 269
e 114 162
e 114 420
e 115 290
e 115 828
e 115 495
e 115 702
e 115 880
e 116 354
e 116 891
e 116 408
e 117 600
e 117 611
e 117 518
e 117 956
e 118 840
e 118 386
e 119 836
e 119 820
e 119 449
e 119 295
e 119 960
e 121 571
e 121 411
e 121 486
e 121 704
e 122 420
e 122 196
e 122 695
e 122 388
e 124 336
e 124 457
e 124 469
e 124 585
e 124 267
e 125 454
e 125 830
e 125 888
e 126 330
e 126 448
e 126 634
e 126 801
e 128 384
e 128 531
e 128 377
e 128 548
e 128 836
e 130 458
e 130 744
e 131 856
e 131 316
e 131 875
e 131 672
e 131 303
e 131 847
e 132 391
e 132 862
e 132 944
e 133 237
e 133 754
e 133 566
e 133 525
e 134 258
e 134 540
e 134 798
e 137 373
e 137 587
e 137 844
e 137 689
e 139 469
e 139 382
e 139 426
e 140 449
e 140 324
e 140 200
e 141 987
e 141 823
e 141 402
e 141 919
e 141 525
e 142 804
e 142 890
e 142 512
e 143 520
e 143 899
e 143 758
e 143 307
e 143 270
e 144 861
e 144 173
e 144 635
e 144 496
e 144 927
e 145 511
e 145 235
e 145 238
e 145 265
e 146 564
e 146 514
e 146 248
e 146 728
e 146 944
e 146 464
e 147 558
e 147 933
e 147 726
e 147 985
e 147 952
e 147 734
e 148 448
e 148 684
e 148 247
e 148 960
e 150 689
e 150 925
e 154 422
e 154 298
e 154 884
e 154 313
e 154 889
e 154 866
e 154 575
e 156 588
e 156 686
e 156 757
e 157 889
e 157 523
e 157 332
e 157 692
e 157 932
e 159 851
e 159 469
e 159 403
e 159 754
e 159 633
e 159 289
e 161 570
e 161 804
e 161 292
e 161 763
e 162 391
e 162 841
e 162 531
e 164 826
e 164 671
e 164 744
e 164 298
e 165 347
e 165 934
e 165 865
e 166 809
e 166 635
e 166 451
e 166 864
e 166 446
e 166 519
e 166 741
e 166 263
e 167 679
e 167 284
e 167 238
e 167 633
e 168 305
e 168 978
e 168 584
e 168 955
e 169 239
e 169 912
e 169 601
e 169 377
e 170 549
e 170 318
e 170 324
e 171 352
e 171 790
e 171 918
e 171 840
e 172 519
e 172 814
e 172 615
e 172 602
e 173 705
e 173 307
e 173 278
e 173 990
e 175 366
e 175 681
e 175 548
e 175 263
e 176 791
e 176 697
e 177 410
e 177 996
e 177 876
e 177 556
e 177 947
e 177 330
e 178 752
e 178 259
e 178 840
e 178 865
e 178 908
e 178 772
e 178 897
e 179 865
e 179 939
e 179 570
e 179 558
e 179 733
e 179 564
e 180 299
e 180 937
e 182 670
e 182 213
e 182 447
e 182 410
e 182 846
e 186 566
e 186 259
e 186 725
e 187 529
e 187 740
e 187 400
e 187 704
e 188 475
e 188 582
e 188 650
e 188 693
e 188 966
e 190 935
e 190 422
e 190 194
e 190 557
e 190 457
e 190 974
e 191 758
e 191 513
e 191 514
e 194 505
e 194 738
e 194 745
e 194 818
e 194 908
e 194 195
e 194 336
e 195 421
e 195 434
e 195 439
e 195 255
e 196 419
e 196 750
e 196 785
e 197 483
e 197 963
e 197 764
e 197 608
e 197 880
e 197 498
e 197 891
e 198 201
e 198 770
e 198 747
e 198 821
e 198 336
e 198 275
e 198 553
e 199 602
e 199 677
e 199 379
e 199 205
e 199 826
e 200 538
e 200 636
e 200 262
e 200 414
e 200 807
e 200 553
e 201 713
e 201 452
e 201 980
e 201 410
e 203 292
e 203 495
e 203 369
e 204 512
e 204 696
e 204 955
e 204 762
e 204 412
e 204 875
e 205 803
e 205 561
e 206 510
e 206 917
e 206 387
e 208 239
e 208 752
e 208 960
e 208 412
e 208 222
e 209 921
e 209 510
e 209 238
e 210 638
e 210 956
e 210 587
e 210 441
e 210 241
e 211 212
e 211 407
e 211 764
e 211 585
e 211 609
e 211 578
e 211 792
e 211 225
e 212 802
e 212 279
e 213 885
e 213 563
e 213 996
e 213 526
e 213 476
e 213 569
e 213 589
e 214 984
e 214 520
e 214 243
e 214 701
e 214 655
e 214 781
e 215 957
e 215 883
e 216 396
e 216 473
e 216 705
e 217 384
e 217 795
e 217 775
e 219 885
e 219 222
e 219 460
e 220 913
e 220 899
e 220 574
e 220 730
e 220 247
e 222 373
e 222 600
e 223 486
e 223 449
e 223 939
e 223 298
e 224 590
e 224 650
e 224 412
e 225 339
e 225 229
e 227 809
e 227 627
e 227 439
e 227 796
e 228 907
e 228 689
e 228 342
e 229 807
e 229 790
e 229 291
e 230 885
e 230 334
e 230 354
e 230 455
e 234 750
e 234 324
e 234 417
e 234 790
e 235 755
e 235 317
e 237 995
e 237 584
e 238 298
e 238 384
e 238 611
e 238 629
e 238 576
e 238 414
e 238 928
e 238 924
e 238 650
e 239 413
e 239 899
e 240 972
e 240 809
e 240 516
e 241 514
e 241 619
e 241 334
e 243 499
e 243 312
e 244 257
e 244 776
e 244 784
e 244 520
e 244 831
e 245 977
e 245 492
e 245 621
e 245 303
e 245 865
e 245 478
e 247 792
e 247 639
e 247 664
e 248 288
e 248 513
e 248 581
e 248 784
e 248 690
e 249 920
e 249 725
e 249 696
e 249 812
e 249 779
e 249 539
e 250 301
e 250 820
e 250 278
e 250 391
e 253 279
e 253 596
e 253 701
e 255 634
e 255 643
e 255 563
e 255 731
e 255 721
e 257 978
e 257 921
e 258 998
e 258 765
e 258 960
e 259 305
e 259 698
e 259 270
e 259 833
e 259 554
e 262 950
e 262 484
e 262 961
e 262 299
e 263 783
e 265 551
e 265 515
e 265 772
e 265 368
e 265 512
e 267 956
e 267 542
e 267 741
e 267 721
e 268 291
e 268 690
e 268 454
e 269 762
e 269 600
e 269 592
e 270 886
e 270 740
e 270 686
e 270 589
e 272 384
e 272 638
e 275 685
e 275 390
e 275 276
e 275 666
e 276 520
e 276 396
e 276 519
e 278 801
e 278 480
e 278 790
e 279 536
e 279 898
e 279 573
e 279 1000
e 283 412
e 283 861
e 283 642
e 283 682
e 283 498
e 283 556
e 284 919
e 284 804
e 284 877
e 284 472
e 285 978
e 285 896
e 286 650
e 286 693
e 288 994
e 288 697
e 290 679
e 290 400
e 291 540
e 292 506
e 292 356
e 295 478
e 295 956
e 295 743
e 295 990
e 297 375
e 297 601
e 297 438
e 297 512
e 297 365
e 297 702
e 298 523
e 298 343
e 298 646
e 298 373
e 298 585
e 298 619
e 299 405
e 299 866
e 299 422
e 299 992
e 299 985
e 299 774
e 299 331
e 300 912
e 300 407
e 300 838
e 300 518
e 301 712
e 301 638
e 301 603
e 301 936
e 302 472
e 302 722
e 302 551
e 303 670
e 303 446
e 303 808
e 303 695
e 303 438
e 304 391
e 304 933
e 304 649
e 304 813
e 304 646
e 305 551
e 305 347
e 305 701
e 305 408
e 305 737
e 307 611
e 307 668
e 307 557
e 308 890
e 308 859
e 308 862
e 308 364
e 308 311
e 308 815
e 308 883
e 309 844
e 309 698
e 309 957
e 310 942
e 310 722
e 311 694
e 311 974
e 311 661
e 311 957
e 311 619
e 312 380
e 312 711
e 312 488
e 312 631
e 313 358
e 313 883
e 313 975
e 315 728
e 315 731
e 315 340
e 315 537
e 315 787
e 315 973
e 316 636
e 316 980
e 316 857
e 317 464
e 317 891
e 317 583
e 318 428
e 318 378
e 318 797
e 318 771
e 318 411
e 319 416
e 319 983
e 322 676
e 322 854
e 324 370
e 324 588
e 324 716
e 324 639
e 325 564
e 325 495
e 325 712
e 325 543
e 325 592
e 326 979
e 326 384
e 326 330
e 326 968
e 326 749
e 326 750
e 328 538
e 328 877
e 328 707
e 330 729
e 330 571
e 330 942
e 331 955
e 331 754
e 331 904
e 332 615
e 332 517
e 332 426
e 332 495
e 333 876
e 334 692
e 334 380
e 334 488
e 334 630
e 335 835
e 335 355
e 336 810
e 336 651
e 336 437
e 336 604
e 336 950
e 336 580
e 336 892
e 338 504
e 338 411
e 338 895
e 338 955
e 338 691
e 338 580
e 339 927
e 339 410
e 339 978
e 340 878
e 340 420
e 340 558
e 340 726
e 342 770
e 342 586
e 342 585
e 343 938
e 343 457
e 343 488
e 346 724
e 346 557
e 346 878
e 346 403
e 347 717
e 347 682
e 347 877
e 347 743
e 348 676
e 348 857
e 348 655
e 348 947
e 351 758
e 351 779
e 351 715
e 352 556
e 352 736
e 352 783
e 354 368
e 354 925
e 354 433
e 355 994
e 355 523
e 355 674
e 355 440
e 355 757
e 355 385
e 355 538
e 356 922
e 356 853
e 356 581
e 357 798
e 357 985
e 357 370
e 358 512
e 358 808
e 360 809
e 360 910
e 362 612
e 362 782
e 362 514
e 362 631
e 362 630
e 362 721
e 362 413
e 364 542
e 364 399
e 364 462
e 364 978
e 364 756
e 365 631
e 365 470
e 365 549
e 365 701
e 365 533
e 366 897
e 366 467
e 366 730
e 366 810
e 368 978
e 369 994
e 369 478
e 370 619
e 370 899
e 371 836
e 371 815
e 373 853
e 373 649
e 373 819
e 375 661
e 375 465
e 377 763
e 377 776
e 377 626
e 377 649
e 377 492
e 377 994
e 378 953
e 378 761
e 378 844
e 378 972
e 379 876
e 379 714
e 379 490
e 380 762
e 380 972
e 381 987
e 381 622
e 381 793
e 382 585
e 382 969
e 383 761
e 383 739
e 383 582
e 383 846
e 383 926
e 384 600
e 384 967
e 384 532
e 384 844
e 384 609
e 384 629
e 384 741
e 385 906
e 385 827
e 386 624
e 386 844
e 387 673
e 387 895
e 387 705
e 388 835
e 388 814
e 388 629
e 389 485
e 390 421
e 390 743
e 390 652
e 391 524
e 392 643
e 392 944
e 392 400
e 392 573
e 396 569
e 396 838
e 397 715
e 397 526
e 397 720
e 399 575
e 399 666
e 399 754
e 400 729
e 400 739
e 400 831
e 400 457
e 400 820
e 401 516
e 401 451
e 401 402
e 401 681
e 401 643
e 402 517
e 403 983
e 403 615
e 403 687
e 403 738
e 404 912
e 404 506
e 404 735
e 404 964
e 404 968
e 405 614
e 407 906
e 407 959
e 408 740
e 408 636
e 408 832
e 410 808
e 410 513
e 410 532
e 410 730
e 411 964
e 411 726
e 411 998
e 412 726
e 412 922
e 413 454
e 413 426
e 413 523
e 414 781
e 414 927
e 414 592
e 414 562
e 416 966
e 416 844
e 417 430
e 417 507
e 417 561
e 418 629
e 418 540
e 418 899
e 418 987
e 419 967
e 419 952
e 420 696
e 420 458
e 420 823
e 420 979
e 420 856
e 420 925
e 421 778
e 425 932
e 425 437
e 425 831
e 425 671
e 425 839
e 426 719
e 426 590
e 426 668
e 427 653
e 427 720
e 427 860
e 428 525
e 428 637
e 429 824
e 429 635
e 429 979
e 430 453
e 430 529
e 431 706
e 431 581
e 431 615
e 431 466
e 432 552
e 432 854
e 432 888
e 433 833
e 433 711
e 433 715
e 433 673
e 434 691
e 434 770
e 434 516
e 434 974
e 434 714
e 437 992
e 437 731
e 438 564
e 439 751
e 439 903
e 440 766
e 440 733
e 440 922
e 440 882
e 440 513
e 441 778
e 441 574
e 441 696
e 441 885
e 442 529
e 442 817
e 442 638
e 445 499
e 445 704
e 446 850
e 446 494
e 447 571
e 447 579
e 447 661
e 448 685
e 448 642
e 448 880
e 449 865
e 450 772
e 450 686
e 451 714
e 451 766
e 452 857
e 452 984
e 452 822
e 453 724
e 454 597
e 454 762
e 455 984
e 455 583
e 455 925
e 455 558
e 455 952
e 457 659
e 457 612
e 457 765
e 458 602
e 459 912
e 459 677
e 459 475
e 460 800
e 460 781
e 461 562
e 461 878
e 461 647
e 462 813
e 462 816
e 462 781
e 464 578
e 465 922
e 465 700
e 465 853
e 465 638
e 465 629
e 466 858
e 466 661
e 466 607
e 467 476
e 467 934
e 469 941
e 469 580
e 469 992
e 469 946
e 470 747
e 470 862
e 472 859
e 472 797
e 473 688
e 473 859
e 473 836
e 473 579
e 475 515
e 475 686
e 475 689
e 476 910
e 476 796
e 476 870
e 478 986
e 478 694
e 478 878
e 480 579
e 480 713
e 483 552
e 483 688
e 483 826
e 484 883
e 484 802
e 484 584
e 484 941
e 485 986
e 485 575
e 485 602
e 486 688
e 486 841
e 488 697
e 490 830
e 490 600
e 490 791
e 494 671
e 494 966
e 495 576
e 495 542
e 495 968
e 496 989
e 496 876
e 498 830
e 498 686
e 499 704
e 499 956
e 499 957
e 500 651
e 501 551
e 501 948
e 504 828
e 504 728
e 505 675
e 506 942
e 506 588
e 506 886
e 507 675
e 507 740
e 507 601
e 507 814
e 509 525
e 509 925
e 510 953
e 510 601
e 511 920
e 511 533
e 512 890
e 512 864
e 513 649
e 513 564
e 513 576
e 514 597
e 514 724
e 514 566
e 514 1000
e 515 813
e 515 654
e 516 611
e 517 918
e 517 914
e 517 620
e 517 814
e 518 719
e 519 631
e 520 695
e 521 945
e 521 947
e 521 809
e 523 618
e 523 944
e 523 602
e 524 696
e 524 594
e 525 782
e 525 581
e 525 936
e 526 750
e 530 883
e 531 771
e 531 832
e 531 935
e 532 607
e 532 586
e 533 950
e 533 552
e 533 707
e 533 915
e 535 904
e 535 961
e 535 932
e 535 780
e 535 934
e 536 883
e 536 897
e 536 926
e 536 978
e 537 830
e 537 635
e 537 728
e 538 726
e 539 780
e 539 653
e 539 574
e 540 644
e 540 730
e 541 898
e 541 543
e 541 974
e 542 730
e 542 647
e 543 735
e 543 964
e 548 859
e 548 759
e 548 588
e 548 861
e 549 758
e 549 905
e 551 803
e 552 562
e 552 921
e 553 690
e 554 779
e 554 700
e 554 717
e 555 705
e 555 836
e 555 884
e 556 852
e 556 892
e 557 569
e 558 965
e 558 645
e 558 581
e 559 875
e 561 655
e 561 907
e 563 758
e 563 570
e 564 785
e 564 736
e 564 620
e 565 932
e 565 751
e 568 827
e 568 838
e 569 860
e 569 896
e 570 620
e 571 602
e 573 584
e 574 839
e 574 813
e 575 609
e 575 822
e 578 856
e 578 764
e 579 668
e 579 826
e 579 841
e 580 921
e 580 695
e 580 780
e 581 818
e 581 866
e 582 893
e 584 897
e 586 928
e 586 826
e 587 968
e 587 964
e 588 720
e 588 594
e 589 708
e 589 690
e 590 596
e 590 903
e 592 678
e 594 908
e 594 640
e 594 840
e 597 680
e 600 943
e 600 775
e 600 609
e 601 684
e 601 946
e 601 989
e 602 985
e 603 726
e 603 680
e 603 817
e 603 646
e 604 936
e 604 928
e 607 963
e 607 654
e 607 689
e 608 639
e 608 623
e 609 712
e 609 762
e 611 946
e 611 763
e 612 892
e 614 628
e 614 693
e 618 973
e 618 677
e 619 749
e 620 819
e 620 740
e 621 993
e 621 712
e 622 715
e 622 895
e 623 765
e 623 990
e 624 884
e 624 757
e 624 783
e 626 918
e 626 908
e 626 960
e 627 917
e 628 877
e 628 692
e 628 818
e 629 977
e 629 679
e 629 659
e 629 794
e 629 702
e 632 745
e 632 893
e 633 764
e 633 708
e 633 704
e 634 716
e 635 821
e 636 793
e 636 741
e 636 803
e 637 959
e 637 939
e 638 741
e 640 678
e 640 715
e 642 850
e 644 933
e 644 722
e 645 841
e 646 969
e 646 859
e 647 892
e 649 759
e 650 801
e 651 983
e 652 1000
e 652 794
e 652 896
e 652 863
e 653 654
e 653 765
e 653 677
e 653 893
e 655 910
e 659 984
e 659 913
e 661 993
e 661 821
e 663 975
e 663 698
e 663 702
e 664 684
e 664 993
e 666 972
e 666 826
e 666 794
e 666 783
e 668 816
e 670 917
e 670 700
e 671 954
e 671 924
e 671 925
e 671 711
e 671 798
e 671 739
e 672 924
e 672 955
e 673 931
e 674 936
e 675 883
e 675 968
e 675 739
e 675 911
e 676 959
e 676 850
e 677 891
e 677 687
e 677 681
e 679 998
e 679 957
e 679 688
e 680 864
e 681 761
e 682 858
e 685 986
e 686 948
e 687 774
e 687 717
e 687 945
e 689 998
e 690 993
e 691 880
e 693 921
e 694 946
e 695 793
e 698 832
e 698 934
e 698 796
e 700 808
e 701 998
e 702 714
e 702 733
e 704 898
e 705 812
e 706 905
e 706 940
e 707 781
e 708 745
e 711 714
e 711 992
e 711 989
e 713 841
e 713 986
e 715 943
e 715 819
e 716 823
e 717 754
e 717 798
e 719 780
e 720 792
e 720 984
e 721 912
e 724 789
e 725 816
e 728 877
e 729 832
e 731 901
e 733 826
e 733 802
e 733 969
e 734 863
e 735 942
e 735 770
e 735 903
e 737 909
e 737 818
e 738 765
e 739 842
e 739 985
e 743 975
e 743 960
e 743 915
e 743 771
e 743 992
e 744 941
e 744 889
e 744 973
e 745 764
e 747 920
e 749 771
e 751 822
e 751 953
e 751 866
e 752 928
e 754 851
e 755 899
e 755 941
e 755 937
e 756 873
e 756 830
e 757 844
e 758 912
e 758 973
e 759 833
e 763 985
e 763 939
e 763 846
e 764 826
e 766 978
e 766 948
e 771 979
e 771 882
e 771 839
e 774 782
e 775 913
e 776 787
e 776 911
e 776 947
e 778 927
e 781 912
e 782 864
e 785 928
e 785 932
e 787 897
e 789 873
e 789 969
e 790 982
e 791 996
e 791 832
e 792 939
e 792 864
e 792 841
e 795 934
e 796 983
e 796 914
e 797 911
e 797 968
e 798 890
e 798 956
e 798 877
e 798 886
e 800 938
e 800 924
e 800 915
e 801 984
e 801 816
e 802 954
e 804 931
e 807 880
e 812 941
e 812 904
e 814 965
e 815 907
e 817 897
e 818 986
e 818 972
e 821 854
e 822 901
e 823 977
e 823 852
e 824 926
e 828 858
e 835 851
e 838 888
e 841 942
e 842 931
e 847 886
e 847 920
e 850 908
e 851 961
e 856 860
e 859 1000
e 862 937
e 863 892
e 864 920
e 866 882
e 870 926
e 870 984
e 880 944
e 883 967
e 884 996
e 889 954
e 892 998
e 905 943
e 909 933
e 914 994
e 921 933
e 922 955
e 935 953
e 940 961
e 942 977
e 947 953
e 947 959
e 950 957
e 953 983
e 955 963
e 989 990
